language Essence 1.3

letting costTC be
        function((1, 1) --> 12, (1, 2) --> 9, (1, 3) --> 9, (1, 4) --> 10, (1, 5) --> 4, (1, 6) --> 7, (1, 7) --> 7,
                 (1, 8) --> 5, (2, 1) --> 4, (2, 2) --> 8, (2, 3) --> 5, (2, 4) --> 9, (2, 5) --> 7, (2, 6) --> 4,
                 (2, 7) --> 9, (2, 8) --> 11, (3, 1) --> 5, (3, 2) --> 7, (3, 3) --> 9, (3, 4) --> 9, (3, 5) --> 8,
                 (3, 6) --> 6, (3, 7) --> 6, (3, 8) --> 6, (4, 1) --> 10, (4, 2) --> 9, (4, 3) --> 9, (4, 4) --> 5,
                 (4, 5) --> 11, (4, 6) --> 9, (4, 7) --> 5, (4, 8) --> 8, (5, 1) --> 6, (5, 2) --> 10, (5, 3) --> 4,
                 (5, 4) --> 12, (5, 5) --> 11, (5, 6) --> 4, (5, 7) --> 5, (5, 8) --> 8, (6, 1) --> 8, (6, 2) --> 12,
                 (6, 3) --> 6, (6, 4) --> 9, (6, 5) --> 4, (6, 6) --> 5, (6, 7) --> 12, (6, 8) --> 5, (7, 1) --> 11,
                 (7, 2) --> 12, (7, 3) --> 8, (7, 4) --> 6, (7, 5) --> 7, (7, 6) --> 7, (7, 7) --> 4, (7, 8) --> 5,
                 (8, 1) --> 11, (8, 2) --> 6, (8, 3) --> 4, (8, 4) --> 4, (8, 5) --> 5, (8, 6) --> 12, (8, 7) --> 10,
                 (8, 8) --> 9, (9, 1) --> 5, (9, 2) --> 12, (9, 3) --> 12, (9, 4) --> 12, (9, 5) --> 7, (9, 6) --> 9,
                 (9, 7) --> 10, (9, 8) --> 12, (10, 1) --> 6, (10, 2) --> 6, (10, 3) --> 12, (10, 4) --> 10,
                 (10, 5) --> 7, (10, 6) --> 7, (10, 7) --> 12, (10, 8) --> 7, (11, 1) --> 6, (11, 2) --> 12,
                 (11, 3) --> 9, (11, 4) --> 10, (11, 5) --> 11, (11, 6) --> 11, (11, 7) --> 8, (11, 8) --> 6,
                 (12, 1) --> 8, (12, 2) --> 6, (12, 3) --> 4, (12, 4) --> 11, (12, 5) --> 6, (12, 6) --> 12,
                 (12, 7) --> 6, (12, 8) --> 8, (13, 1) --> 10, (13, 2) --> 7, (13, 3) --> 4, (13, 4) --> 8,
                 (13, 5) --> 4, (13, 6) --> 10, (13, 7) --> 8, (13, 8) --> 5, (14, 1) --> 4, (14, 2) --> 11,
                 (14, 3) --> 11, (14, 4) --> 11, (14, 5) --> 12, (14, 6) --> 7, (14, 7) --> 7, (14, 8) --> 9,
                 (15, 1) --> 10, (15, 2) --> 5, (15, 3) --> 8, (15, 4) --> 8, (15, 5) --> 9, (15, 6) --> 9,
                 (15, 7) --> 6, (15, 8) --> 11, (16, 1) --> 8, (16, 2) --> 11, (16, 3) --> 6, (16, 4) --> 9,
                 (16, 5) --> 12, (16, 6) --> 10, (16, 7) --> 9, (16, 8) --> 8, (17, 1) --> 12, (17, 2) --> 7,
                 (17, 3) --> 8, (17, 4) --> 9, (17, 5) --> 9, (17, 6) --> 7, (17, 7) --> 9, (17, 8) --> 12,
                 (18, 1) --> 12, (18, 2) --> 5, (18, 3) --> 10, (18, 4) --> 8, (18, 5) --> 10, (18, 6) --> 5,
                 (18, 7) --> 10, (18, 8) --> 8, (19, 1) --> 9, (19, 2) --> 7, (19, 3) --> 8, (19, 4) --> 7,
                 (19, 5) --> 6, (19, 6) --> 11, (19, 7) --> 8, (19, 8) --> 10, (20, 1) --> 8, (20, 2) --> 11,
                 (20, 3) --> 5, (20, 4) --> 12, (20, 5) --> 5, (20, 6) --> 5, (20, 7) --> 7, (20, 8) --> 10,
                 (21, 1) --> 10, (21, 2) --> 9, (21, 3) --> 12, (21, 4) --> 8, (21, 5) --> 9, (21, 6) --> 11,
                 (21, 7) --> 10, (21, 8) --> 11, (22, 1) --> 7, (22, 2) --> 8, (22, 3) --> 7, (22, 4) --> 7,
                 (22, 5) --> 5, (22, 6) --> 12, (22, 7) --> 8, (22, 8) --> 7, (23, 1) --> 9, (23, 2) --> 12,
                 (23, 3) --> 8, (23, 4) --> 9, (23, 5) --> 8, (23, 6) --> 9, (23, 7) --> 7, (23, 8) --> 10,
                 (24, 1) --> 9, (24, 2) --> 10, (24, 3) --> 11, (24, 4) --> 10, (24, 5) --> 7, (24, 6) --> 6,
                 (24, 7) --> 6, (24, 8) --> 7, (25, 1) --> 12, (25, 2) --> 5, (25, 3) --> 9, (25, 4) --> 6,
                 (25, 5) --> 4, (25, 6) --> 12, (25, 7) --> 6, (25, 8) --> 4, (26, 1) --> 5, (26, 2) --> 10,
                 (26, 3) --> 6, (26, 4) --> 11, (26, 5) --> 9, (26, 6) --> 10, (26, 7) --> 10, (26, 8) --> 9,
                 (27, 1) --> 4, (27, 2) --> 11, (27, 3) --> 11, (27, 4) --> 12, (27, 5) --> 10, (27, 6) --> 5,
                 (27, 7) --> 8, (27, 8) --> 4, (28, 1) --> 9, (28, 2) --> 6, (28, 3) --> 4, (28, 4) --> 10,
                 (28, 5) --> 8, (28, 6) --> 7, (28, 7) --> 10, (28, 8) --> 6, (29, 1) --> 6, (29, 2) --> 12,
                 (29, 3) --> 4, (29, 4) --> 11, (29, 5) --> 10, (29, 6) --> 9, (29, 7) --> 7, (29, 8) --> 10,
                 (30, 1) --> 11, (30, 2) --> 12, (30, 3) --> 5, (30, 4) --> 9, (30, 5) --> 9, (30, 6) --> 10,
                 (30, 7) --> 4, (30, 8) --> 12, (31, 1) --> 11, (31, 2) --> 7, (31, 3) --> 11, (31, 4) --> 10,
                 (31, 5) --> 9, (31, 6) --> 12, (31, 7) --> 12, (31, 8) --> 9, (32, 1) --> 9, (32, 2) --> 5,
                 (32, 3) --> 9, (32, 4) --> 8, (32, 5) --> 11, (32, 6) --> 7, (32, 7) --> 10, (32, 8) --> 12,
                 (33, 1) --> 10, (33, 2) --> 7, (33, 3) --> 5, (33, 4) --> 10, (33, 5) --> 8, (33, 6) --> 9,
                 (33, 7) --> 8, (33, 8) --> 12, (34, 1) --> 9, (34, 2) --> 12, (34, 3) --> 8, (34, 4) --> 7,
                 (34, 5) --> 7, (34, 6) --> 9, (34, 7) --> 8, (34, 8) --> 5, (35, 1) --> 10, (35, 2) --> 9,
                 (35, 3) --> 8, (35, 4) --> 8, (35, 5) --> 10, (35, 6) --> 5, (35, 7) --> 10, (35, 8) --> 5,
                 (36, 1) --> 12, (36, 2) --> 6, (36, 3) --> 7, (36, 4) --> 9, (36, 5) --> 10, (36, 6) --> 12,
                 (36, 7) --> 12, (36, 8) --> 8, (37, 1) --> 10, (37, 2) --> 11, (37, 3) --> 10, (37, 4) --> 6,
                 (37, 5) --> 7, (37, 6) --> 5, (37, 7) --> 8, (37, 8) --> 5, (38, 1) --> 4, (38, 2) --> 8,
                 (38, 3) --> 11, (38, 4) --> 9, (38, 5) --> 8, (38, 6) --> 12, (38, 7) --> 6, (38, 8) --> 8,
                 (39, 1) --> 4, (39, 2) --> 12, (39, 3) --> 11, (39, 4) --> 12, (39, 5) --> 4, (39, 6) --> 6,
                 (39, 7) --> 9, (39, 8) --> 7, (40, 1) --> 9, (40, 2) --> 4, (40, 3) --> 6, (40, 4) --> 4,
                 (40, 5) --> 12, (40, 6) --> 10, (40, 7) --> 6, (40, 8) --> 10, (41, 1) --> 6, (41, 2) --> 9,
                 (41, 3) --> 9, (41, 4) --> 5, (41, 5) --> 11, (41, 6) --> 11, (41, 7) --> 7, (41, 8) --> 10,
                 (42, 1) --> 12, (42, 2) --> 4, (42, 3) --> 11, (42, 4) --> 12, (42, 5) --> 12, (42, 6) --> 6,
                 (42, 7) --> 8, (42, 8) --> 9, (43, 1) --> 4, (43, 2) --> 7, (43, 3) --> 12, (43, 4) --> 9,
                 (43, 5) --> 6, (43, 6) --> 5, (43, 7) --> 11, (43, 8) --> 5, (44, 1) --> 10, (44, 2) --> 6,
                 (44, 3) --> 12, (44, 4) --> 8, (44, 5) --> 5, (44, 6) --> 10, (44, 7) --> 9, (44, 8) --> 4,
                 (45, 1) --> 5, (45, 2) --> 9, (45, 3) --> 10, (45, 4) --> 5, (45, 5) --> 10, (45, 6) --> 6,
                 (45, 7) --> 7, (45, 8) --> 8)
letting costWT be
        function((1, 1) --> 4, (1, 2) --> 4, (1, 3) --> 3, (1, 4) --> 3, (1, 5) --> 2, (1, 6) --> 4, (1, 7) --> 3,
                 (1, 8) --> 1, (1, 9) --> 3, (1, 10) --> 3, (1, 11) --> 2, (1, 12) --> 4, (1, 13) --> 3, (1, 14) --> 3,
                 (1, 15) --> 1, (1, 16) --> 1, (1, 17) --> 2, (1, 18) --> 4, (1, 19) --> 4, (1, 20) --> 4,
                 (1, 21) --> 4, (1, 22) --> 2, (1, 23) --> 2, (1, 24) --> 2, (1, 25) --> 1, (1, 26) --> 1,
                 (1, 27) --> 4, (1, 28) --> 4, (1, 29) --> 2, (1, 30) --> 3, (1, 31) --> 1, (1, 32) --> 2,
                 (1, 33) --> 3, (1, 34) --> 4, (1, 35) --> 2, (1, 36) --> 3, (1, 37) --> 2, (1, 38) --> 1,
                 (1, 39) --> 4, (1, 40) --> 2, (1, 41) --> 4, (1, 42) --> 3, (1, 43) --> 2, (1, 44) --> 1,
                 (1, 45) --> 3, (2, 1) --> 4, (2, 2) --> 4, (2, 3) --> 1, (2, 4) --> 4, (2, 5) --> 3, (2, 6) --> 3,
                 (2, 7) --> 2, (2, 8) --> 3, (2, 9) --> 2, (2, 10) --> 2, (2, 11) --> 1, (2, 12) --> 2, (2, 13) --> 4,
                 (2, 14) --> 2, (2, 15) --> 4, (2, 16) --> 2, (2, 17) --> 2, (2, 18) --> 1, (2, 19) --> 4,
                 (2, 20) --> 4, (2, 21) --> 2, (2, 22) --> 1, (2, 23) --> 2, (2, 24) --> 2, (2, 25) --> 1,
                 (2, 26) --> 4, (2, 27) --> 4, (2, 28) --> 2, (2, 29) --> 1, (2, 30) --> 4, (2, 31) --> 3,
                 (2, 32) --> 2, (2, 33) --> 3, (2, 34) --> 1, (2, 35) --> 4, (2, 36) --> 4, (2, 37) --> 1,
                 (2, 38) --> 4, (2, 39) --> 2, (2, 40) --> 3, (2, 41) --> 2, (2, 42) --> 1, (2, 43) --> 1,
                 (2, 44) --> 2, (2, 45) --> 3, (3, 1) --> 3, (3, 2) --> 2, (3, 3) --> 4, (3, 4) --> 3, (3, 5) --> 2,
                 (3, 6) --> 1, (3, 7) --> 2, (3, 8) --> 4, (3, 9) --> 4, (3, 10) --> 2, (3, 11) --> 1, (3, 12) --> 4,
                 (3, 13) --> 1, (3, 14) --> 3, (3, 15) --> 4, (3, 16) --> 3, (3, 17) --> 4, (3, 18) --> 2,
                 (3, 19) --> 2, (3, 20) --> 2, (3, 21) --> 4, (3, 22) --> 4, (3, 23) --> 1, (3, 24) --> 1,
                 (3, 25) --> 3, (3, 26) --> 3, (3, 27) --> 4, (3, 28) --> 4, (3, 29) --> 1, (3, 30) --> 1,
                 (3, 31) --> 2, (3, 32) --> 4, (3, 33) --> 2, (3, 34) --> 1, (3, 35) --> 3, (3, 36) --> 4,
                 (3, 37) --> 1, (3, 38) --> 1, (3, 39) --> 3, (3, 40) --> 3, (3, 41) --> 2, (3, 42) --> 1,
                 (3, 43) --> 1, (3, 44) --> 4, (3, 45) --> 2, (4, 1) --> 2, (4, 2) --> 2, (4, 3) --> 1, (4, 4) --> 2,
                 (4, 5) --> 1, (4, 6) --> 1, (4, 7) --> 1, (4, 8) --> 3, (4, 9) --> 4, (4, 10) --> 3, (4, 11) --> 3,
                 (4, 12) --> 3, (4, 13) --> 2, (4, 14) --> 4, (4, 15) --> 3, (4, 16) --> 3, (4, 17) --> 4,
                 (4, 18) --> 3, (4, 19) --> 2, (4, 20) --> 2, (4, 21) --> 3, (4, 22) --> 4, (4, 23) --> 2,
                 (4, 24) --> 3, (4, 25) --> 4, (4, 26) --> 1, (4, 27) --> 2, (4, 28) --> 3, (4, 29) --> 2,
                 (4, 30) --> 1, (4, 31) --> 3, (4, 32) --> 2, (4, 33) --> 4, (4, 34) --> 3, (4, 35) --> 2,
                 (4, 36) --> 4, (4, 37) --> 4, (4, 38) --> 2, (4, 39) --> 2, (4, 40) --> 2, (4, 41) --> 4,
                 (4, 42) --> 2, (4, 43) --> 1, (4, 44) --> 2, (4, 45) --> 4, (5, 1) --> 1, (5, 2) --> 4, (5, 3) --> 2,
                 (5, 4) --> 1, (5, 5) --> 1, (5, 6) --> 3, (5, 7) --> 3, (5, 8) --> 1, (5, 9) --> 4, (5, 10) --> 2,
                 (5, 11) --> 3, (5, 12) --> 4, (5, 13) --> 1, (5, 14) --> 4, (5, 15) --> 3, (5, 16) --> 2,
                 (5, 17) --> 1, (5, 18) --> 1, (5, 19) --> 4, (5, 20) --> 1, (5, 21) --> 3, (5, 22) --> 2,
                 (5, 23) --> 2, (5, 24) --> 1, (5, 25) --> 2, (5, 26) --> 2, (5, 27) --> 4, (5, 28) --> 1,
                 (5, 29) --> 4, (5, 30) --> 2, (5, 31) --> 4, (5, 32) --> 1, (5, 33) --> 3, (5, 34) --> 2,
                 (5, 35) --> 1, (5, 36) --> 4, (5, 37) --> 2, (5, 38) --> 4, (5, 39) --> 2, (5, 40) --> 1,
                 (5, 41) --> 4, (5, 42) --> 1, (5, 43) --> 1, (5, 44) --> 1, (5, 45) --> 3, (6, 1) --> 3, (6, 2) --> 3,
                 (6, 3) --> 4, (6, 4) --> 2, (6, 5) --> 2, (6, 6) --> 4, (6, 7) --> 2, (6, 8) --> 3, (6, 9) --> 2,
                 (6, 10) --> 3, (6, 11) --> 4, (6, 12) --> 3, (6, 13) --> 3, (6, 14) --> 2, (6, 15) --> 1,
                 (6, 16) --> 2, (6, 17) --> 3, (6, 18) --> 3, (6, 19) --> 2, (6, 20) --> 3, (6, 21) --> 1,
                 (6, 22) --> 1, (6, 23) --> 3, (6, 24) --> 4, (6, 25) --> 3, (6, 26) --> 3, (6, 27) --> 3,
                 (6, 28) --> 1, (6, 29) --> 3, (6, 30) --> 3, (6, 31) --> 3, (6, 32) --> 4, (6, 33) --> 2,
                 (6, 34) --> 1, (6, 35) --> 1, (6, 36) --> 2, (6, 37) --> 4, (6, 38) --> 2, (6, 39) --> 3,
                 (6, 40) --> 2, (6, 41) --> 4, (6, 42) --> 2, (6, 43) --> 4, (6, 44) --> 3, (6, 45) --> 1, (7, 1) --> 4,
                 (7, 2) --> 3, (7, 3) --> 4, (7, 4) --> 2, (7, 5) --> 1, (7, 6) --> 4, (7, 7) --> 1, (7, 8) --> 2,
                 (7, 9) --> 4, (7, 10) --> 2, (7, 11) --> 1, (7, 12) --> 1, (7, 13) --> 2, (7, 14) --> 3, (7, 15) --> 4,
                 (7, 16) --> 4, (7, 17) --> 3, (7, 18) --> 1, (7, 19) --> 2, (7, 20) --> 1, (7, 21) --> 4,
                 (7, 22) --> 1, (7, 23) --> 3, (7, 24) --> 2, (7, 25) --> 3, (7, 26) --> 3, (7, 27) --> 3,
                 (7, 28) --> 3, (7, 29) --> 1, (7, 30) --> 3, (7, 31) --> 2, (7, 32) --> 2, (7, 33) --> 3,
                 (7, 34) --> 1, (7, 35) --> 2, (7, 36) --> 3, (7, 37) --> 4, (7, 38) --> 2, (7, 39) --> 4,
                 (7, 40) --> 3, (7, 41) --> 3, (7, 42) --> 2, (7, 43) --> 3, (7, 44) --> 2, (7, 45) --> 1, (8, 1) --> 1,
                 (8, 2) --> 1, (8, 3) --> 1, (8, 4) --> 2, (8, 5) --> 3, (8, 6) --> 1, (8, 7) --> 4, (8, 8) --> 1,
                 (8, 9) --> 3, (8, 10) --> 2, (8, 11) --> 1, (8, 12) --> 3, (8, 13) --> 2, (8, 14) --> 2, (8, 15) --> 3,
                 (8, 16) --> 2, (8, 17) --> 1, (8, 18) --> 3, (8, 19) --> 1, (8, 20) --> 4, (8, 21) --> 4,
                 (8, 22) --> 4, (8, 23) --> 1, (8, 24) --> 2, (8, 25) --> 2, (8, 26) --> 3, (8, 27) --> 1,
                 (8, 28) --> 1, (8, 29) --> 1, (8, 30) --> 2, (8, 31) --> 4, (8, 32) --> 1, (8, 33) --> 3,
                 (8, 34) --> 4, (8, 35) --> 4, (8, 36) --> 2, (8, 37) --> 2, (8, 38) --> 3, (8, 39) --> 1,
                 (8, 40) --> 3, (8, 41) --> 3, (8, 42) --> 4, (8, 43) --> 4, (8, 44) --> 2, (8, 45) --> 2, (9, 1) --> 1,
                 (9, 2) --> 3, (9, 3) --> 2, (9, 4) --> 1, (9, 5) --> 4, (9, 6) --> 3, (9, 7) --> 1, (9, 8) --> 1,
                 (9, 9) --> 2, (9, 10) --> 2, (9, 11) --> 3, (9, 12) --> 4, (9, 13) --> 4, (9, 14) --> 1, (9, 15) --> 3,
                 (9, 16) --> 1, (9, 17) --> 2, (9, 18) --> 2, (9, 19) --> 3, (9, 20) --> 3, (9, 21) --> 1,
                 (9, 22) --> 3, (9, 23) --> 4, (9, 24) --> 3, (9, 25) --> 3, (9, 26) --> 4, (9, 27) --> 3,
                 (9, 28) --> 2, (9, 29) --> 2, (9, 30) --> 4, (9, 31) --> 1, (9, 32) --> 2, (9, 33) --> 2,
                 (9, 34) --> 2, (9, 35) --> 3, (9, 36) --> 2, (9, 37) --> 1, (9, 38) --> 2, (9, 39) --> 3,
                 (9, 40) --> 1, (9, 41) --> 2, (9, 42) --> 1, (9, 43) --> 1, (9, 44) --> 2, (9, 45) --> 2,
                 (10, 1) --> 1, (10, 2) --> 2, (10, 3) --> 1, (10, 4) --> 4, (10, 5) --> 2, (10, 6) --> 3,
                 (10, 7) --> 4, (10, 8) --> 3, (10, 9) --> 1, (10, 10) --> 4, (10, 11) --> 4, (10, 12) --> 3,
                 (10, 13) --> 3, (10, 14) --> 2, (10, 15) --> 1, (10, 16) --> 2, (10, 17) --> 2, (10, 18) --> 4,
                 (10, 19) --> 3, (10, 20) --> 1, (10, 21) --> 3, (10, 22) --> 4, (10, 23) --> 1, (10, 24) --> 3,
                 (10, 25) --> 1, (10, 26) --> 4, (10, 27) --> 1, (10, 28) --> 4, (10, 29) --> 4, (10, 30) --> 4,
                 (10, 31) --> 4, (10, 32) --> 1, (10, 33) --> 3, (10, 34) --> 2, (10, 35) --> 1, (10, 36) --> 3,
                 (10, 37) --> 2, (10, 38) --> 1, (10, 39) --> 3, (10, 40) --> 2, (10, 41) --> 3, (10, 42) --> 3,
                 (10, 43) --> 3, (10, 44) --> 2, (10, 45) --> 2, (11, 1) --> 4, (11, 2) --> 2, (11, 3) --> 3,
                 (11, 4) --> 3, (11, 5) --> 2, (11, 6) --> 4, (11, 7) --> 2, (11, 8) --> 4, (11, 9) --> 1,
                 (11, 10) --> 4, (11, 11) --> 3, (11, 12) --> 4, (11, 13) --> 2, (11, 14) --> 2, (11, 15) --> 2,
                 (11, 16) --> 4, (11, 17) --> 1, (11, 18) --> 3, (11, 19) --> 2, (11, 20) --> 3, (11, 21) --> 3,
                 (11, 22) --> 4, (11, 23) --> 2, (11, 24) --> 1, (11, 25) --> 3, (11, 26) --> 4, (11, 27) --> 3,
                 (11, 28) --> 4, (11, 29) --> 1, (11, 30) --> 4, (11, 31) --> 1, (11, 32) --> 1, (11, 33) --> 3,
                 (11, 34) --> 1, (11, 35) --> 2, (11, 36) --> 3, (11, 37) --> 2, (11, 38) --> 1, (11, 39) --> 1,
                 (11, 40) --> 2, (11, 41) --> 1, (11, 42) --> 2, (11, 43) --> 4, (11, 44) --> 3, (11, 45) --> 4,
                 (12, 1) --> 2, (12, 2) --> 4, (12, 3) --> 2, (12, 4) --> 2, (12, 5) --> 3, (12, 6) --> 4,
                 (12, 7) --> 1, (12, 8) --> 1, (12, 9) --> 4, (12, 10) --> 4, (12, 11) --> 1, (12, 12) --> 4,
                 (12, 13) --> 3, (12, 14) --> 4, (12, 15) --> 4, (12, 16) --> 3, (12, 17) --> 1, (12, 18) --> 4,
                 (12, 19) --> 4, (12, 20) --> 4, (12, 21) --> 1, (12, 22) --> 2, (12, 23) --> 1, (12, 24) --> 2,
                 (12, 25) --> 1, (12, 26) --> 3, (12, 27) --> 4, (12, 28) --> 4, (12, 29) --> 2, (12, 30) --> 3,
                 (12, 31) --> 3, (12, 32) --> 3, (12, 33) --> 4, (12, 34) --> 1, (12, 35) --> 4, (12, 36) --> 4,
                 (12, 37) --> 2, (12, 38) --> 2, (12, 39) --> 3, (12, 40) --> 1, (12, 41) --> 3, (12, 42) --> 2,
                 (12, 43) --> 4, (12, 44) --> 3, (12, 45) --> 1, (13, 1) --> 2, (13, 2) --> 3, (13, 3) --> 3,
                 (13, 4) --> 3, (13, 5) --> 3, (13, 6) --> 1, (13, 7) --> 2, (13, 8) --> 2, (13, 9) --> 2,
                 (13, 10) --> 1, (13, 11) --> 4, (13, 12) --> 3, (13, 13) --> 1, (13, 14) --> 3, (13, 15) --> 2,
                 (13, 16) --> 3, (13, 17) --> 4, (13, 18) --> 3, (13, 19) --> 4, (13, 20) --> 1, (13, 21) --> 2,
                 (13, 22) --> 3, (13, 23) --> 2, (13, 24) --> 4, (13, 25) --> 1, (13, 26) --> 2, (13, 27) --> 3,
                 (13, 28) --> 4, (13, 29) --> 1, (13, 30) --> 1, (13, 31) --> 1, (13, 32) --> 2, (13, 33) --> 2,
                 (13, 34) --> 1, (13, 35) --> 1, (13, 36) --> 4, (13, 37) --> 1, (13, 38) --> 3, (13, 39) --> 2,
                 (13, 40) --> 2, (13, 41) --> 2, (13, 42) --> 1, (13, 43) --> 3, (13, 44) --> 3, (13, 45) --> 3)
letting demand be function(1 --> 11, 2 --> 13, 3 --> 5, 4 --> 14, 5 --> 8, 6 --> 2, 7 --> 10, 8 --> 13)
letting maxCost be 44
letting n_customer be 8
letting n_transshipment be 45
letting n_warehouses be 13
letting stock be
        function(1 --> 8, 2 --> 4, 3 --> 3, 4 --> 14, 5 --> 10, 6 --> 10, 7 --> 17, 8 --> 10, 9 --> 5, 10 --> 16,
                 11 --> 19, 12 --> 6, 13 --> 13)
